Instance name : SB_bar-n100-6
Authors : 
Date : 
Reference 
Solution
Route 1 : 38 88 41 47 91 1 51 7 57 97 9 11 2 52 59 19 61 69 
Route 2 : 37 4 31 54 32 87 81 30 82 80 18 8 15 68 65 23 73 27 45 77 35 33 83 95 14 85 64 10 58 60 24 50 100 74 
Route 3 : 29 20 70 79 12 21 62 42 71 6 92 44 56 36 13 86 46 94 26 63 76 49 96 99 
Route 4 : 22 43 72 16 93 40 25 34 48 90 66 84 28 98 5 17 67 78 3 39 53 55 75 89 
